1 1 -2 0
1 3 4 0
1 5 6 0
1 -4 7 0
1 -4 -8 0
1 4 -1 0
1 4 3 0
1 9 -5 0
1 -9 -10 0
1 -11 -5 0
1 11 3 0
1 11 -12 0
1 13 14 0
1 7 -15 0
1 -6 -16 0
1 17 -14 0
1 14 -18 0
1 -16 6 0
1 19 20 0
1 19 21 0
1 15 16 0
1 15 22 0
1 15 21 0
1 -15 23 0
1 24 7 0
1 24 -25 0
1 -24 23 0
1 -26 -27 0
1 26 28 0
1 2 -29 0
1 -2 26 0
1 -30 31 0
1 -32 -31 0
1 -27 -32 0
1 27 33 0
1 34 -35 0
1 -36 -37 0
1 36 34 0
1 -10 -38 0
1 10 25 0
1 -10 -39 0
1 -40 20 0
1 -40 10 0
1 41 -42 0
1 41 -43 0
1 -35 -36 0
1 35 -44 0
1 -43 9 0
1 43 45 0
1 -18 20 0
1 18 46 0
1 -20 -47 0
1 20 48 0
1 20 12 0
1 -49 50 0
1 -49 51 0
1 -46 -52 0
1 51 -14 0
1 53 -14 0
1 53 -51 0
1 -54 -55 0
1 -56 -57 0
1 -56 -58 0
1 56 59 0
1 48 -51 0
1 55 9 0
1 -12 -60 0
1 -12 -55 0
1 12 56 0
1 61 62 0
1 63 62 0
1 64 65 0
1 59 -66 0
1 -67 -54 0
1 -67 -23 0
1 -68 69 0
1 70 71 0
1 -65 -70 0
1 72 -73 0
1 -72 74 0
1 72 65 0
1 75 76 0
1 75 -63 0
1 77 -2 0
1 -78 79 0
1 78 -80 0
1 -81 77 0
1 82 -83 0
1 -84 -85 0
1 86 -87 0
1 33 88 0
1 33 89 0
1 33 -90 0
1 -79 -88 0
1 -91 92 0
1 93 94 0
1 -93 -95 0
1 96 91 0
1 96 -90 0
1 97 27 0
1 97 -42 0
1 97 -28 0
1 -97 96 0
1 88 98 0
1 -99 -52 0
1 90 100 0
1 89 98 0
1 101 -52 0
1 -101 102 0
1 101 -31 0
1 101 -41 0
1 52 -39 0
1 -52 53 0
1 -103 -104 0
1 103 105 0
1 -102 103 0
1 102 -106 0
1 -107 -28 0
1 108 -100 0
1 -108 -103 0
1 109 52 0
1 109 110 0
1 50 -39 0
1 50 12 0
1 -111 -107 0
1 60 55 0
1 -60 112 0
1 106 107 0
1 106 -63 0
1 106 -112 0
1 113 -114 0
1 -114 -115 0
1 114 -116 0
1 114 -117 0
1 118 119 0
1 -118 -106 0
1 -118 111 0
1 118 105 0
1 120 50 0
1 116 121 0
1 116 -122 0
1 -116 112 0
1 116 -12 0
1 123 -124 0
1 -125 -126 0
1 112 -127 0
1 -112 115 0
1 112 125 0
1 112 -128 0
1 112 -106 0
1 112 -129 0
1 -130 116 0
1 -122 -130 0
1 122 128 0
1 -127 71 0
1 126 131 0
1 126 132 0
1 -133 -131 0
1 134 124 0
1 -134 -135 0
1 134 136 0
1 124 -115 0
1 -131 -55 0
1 -137 -138 0
1 73 134 0
1 73 139 0
1 140 -141 0
1 -140 -132 0
1 -136 76 0
1 136 -142 0
1 143 144 0
1 143 136 0
1 132 145 0
1 -132 -146 0
1 132 147 0
1 145 148 0
1 -145 147 0
1 -141 -149 0
1 -141 -136 0
1 -150 -142 0
1 148 151 0
1 -142 -152 0
1 142 136 0
1 -74 -150 0
1 -153 -154 0
1 76 143 0
1 155 156 0
1 157 158 0
1 159 160 0
1 -161 162 0
1 -158 163 0
1 158 -164 0
1 -160 165 0
1 166 83 0
1 -167 -162 0
1 -167 160 0
1 -165 -168 0
1 -165 157 0
1 169 170 0
1 85 84 0
1 -85 -166 0
1 -85 -167 0
1 -171 97 0
1 172 173 0
1 172 174 0
1 175 166 0
1 -174 176 0
1 -174 -85 0
1 177 -104 0
1 178 179 0
1 180 -181 0
1 180 175 0
1 -180 -182 0
1 183 174 0
1 -104 184 0
1 185 -186 0
1 185 184 0
1 -185 -90 0
1 -187 -188 0
1 187 100 0
1 -173 -189 0
1 190 -183 0
1 -100 108 0
1 -100 -173 0
1 -100 186 0
1 98 -108 0
1 -98 191 0
1 -98 -186 0
1 -188 192 0
1 -184 193 0
1 95 -100 0
1 186 -98 0
1 186 -185 0
1 191 -194 0
1 -191 98 0
1 195 -95 0
1 195 196 0
1 121 -95 0
1 121 107 0
1 197 -95 0
1 -198 -99 0
1 -198 -199 0
1 198 121 0
1 196 -200 0
1 119 -130 0
1 -119 -198 0
1 119 -120 0
1 199 -192 0
1 -199 201 0
1 202 -203 0
1 -204 138 0
1 205 206 0
1 205 207 0
1 110 -208 0
1 -110 -119 0
1 -110 203 0
1 -110 209 0
1 -210 202 0
1 128 -210 0
1 138 211 0
1 -138 131 0
1 -138 -117 0
1 -212 -117 0
1 -213 -151 0
1 -213 214 0
1 -117 128 0
1 201 138 0
1 215 208 0
1 -215 216 0
1 215 138 0
1 -214 211 0
1 217 -218 0
1 217 -151 0
1 217 211 0
1 -217 -219 0
1 217 129 0
1 151 220 0
1 151 117 0
1 211 -221 0
1 129 -222 0
1 129 -212 0
1 223 -222 0
1 223 217 0
1 147 -144 0
1 147 154 0
1 147 -211 0
1 -224 225 0
1 224 -76 0
1 226 -149 0
1 -226 146 0
1 135 -227 0
1 -135 226 0
1 -135 -154 0
1 -135 -151 0
1 -218 147 0
1 -228 -229 0
1 -228 -230 0
1 -228 -222 0
1 228 -224 0
1 -231 228 0
1 231 -217 0
1 -232 227 0
1 -232 233 0
1 232 149 0
1 146 -227 0
1 146 234 0
1 -146 132 0
1 146 235 0
1 234 -236 0
1 234 -224 0
1 149 -226 0
1 -149 -224 0
1 225 229 0
1 237 -233 0
1 235 -237 0
1 -152 235 0
1 238 227 0
1 239 240 0
1 239 241 0
1 -233 242 0
1 -243 244 0
1 245 -246 0
1 247 -248 0
1 -249 -250 0
1 -251 252 0
1 244 -253 0
1 244 254 0
1 -255 -256 0
1 255 243 0
1 -255 257 0
1 -258 -259 0
1 -250 -257 0
1 -260 261 0
1 -248 163 0
1 248 260 0
1 -259 -260 0
1 262 258 0
1 263 -264 0
1 -263 -265 0
1 -163 -158 0
1 163 259 0
1 -163 -261 0
1 -163 -263 0
1 -163 -161 0
1 -168 -264 0
1 168 266 0
1 -267 -261 0
1 267 -168 0
1 264 -179 0
1 -264 -260 0
1 264 -268 0
1 -268 168 0
1 269 -163 0
1 261 -260 0
1 -261 270 0
1 261 250 0
1 -271 -272 0
1 -170 -266 0
1 -273 274 0
1 -275 159 0
1 -275 -273 0
1 276 168 0
1 -276 -161 0
1 -276 182 0
1 -272 266 0
1 -272 -273 0
1 272 -156 0
1 176 -174 0
1 176 277 0
1 -182 278 0
1 279 -190 0
1 -280 281 0
1 282 -283 0
1 -282 284 0
1 285 286 0
1 278 287 0
1 278 -176 0
1 288 176 0
1 -194 -281 0
1 194 289 0
1 286 -285 0
1 -286 281 0
1 -290 286 0
1 -290 -291 0
1 292 -281 0
1 292 -286 0
1 292 -290 0
1 281 -293 0
1 -281 -290 0
1 -181 -294 0
1 -181 -295 0
1 -181 290 0
1 296 196 0
1 296 291 0
1 -297 298 0
1 299 -292 0
1 -291 293 0
1 300 293 0
1 300 -286 0
1 300 -301 0
1 -300 290 0
1 302 303 0
1 302 304 0
1 305 -205 0
1 305 -110 0
1 207 192 0
1 -207 -305 0
1 -207 306 0
1 -207 200 0
1 -307 -308 0
1 -307 309 0
1 -310 311 0
1 310 -298 0
1 -310 -206 0
1 298 305 0
1 -298 -299 0
1 298 -310 0
1 -306 312 0
1 -311 -312 0
1 313 -310 0
1 220 314 0
1 220 215 0
1 -315 -316 0
1 -317 -198 0
1 308 206 0
1 -318 319 0
1 320 223 0
1 321 154 0
1 -321 -223 0
1 -316 314 0
1 -322 221 0
1 322 -313 0
1 323 324 0
1 323 -325 0
1 323 321 0
1 323 221 0
1 314 326 0
1 -327 319 0
1 -327 326 0
1 221 328 0
1 221 -228 0
1 222 -319 0
1 -222 -329 0
1 -222 129 0
1 -330 -230 0
1 330 -328 0
1 330 323 0
1 -330 -216 0
1 330 -331 0
1 -328 332 0
1 -331 -333 0
1 -329 -325 0
1 329 201 0
1 334 -335 0
1 336 -337 0
1 336 338 0
1 -336 -339 0
1 336 -340 0
1 336 341 0
1 -336 -342 0
1 343 -344 0
1 -343 341 0
1 338 334 0
1 338 330 0
1 345 -346 0
1 345 330 0
1 241 337 0
1 -241 346 0
1 347 233 0
1 348 349 0
1 -337 -218 0
1 337 -240 0
1 -337 340 0
1 350 351 0
1 350 241 0
1 -352 344 0
1 -353 -239 0
1 -354 -355 0
1 236 356 0
1 236 -354 0
1 -349 240 0
1 -349 353 0
1 349 -242 0
1 -357 349 0
1 358 236 0
1 -359 -354 0
1 359 360 0
1 361 -362 0
1 355 -363 0
1 355 364 0
1 -365 -366 0
1 -365 367 0
1 368 369 0
1 370 365 0
1 370 -371 0
1 372 -368 0
1 -372 -246 0
1 -369 373 0
1 -369 368 0
1 -369 -374 0
1 369 -246 0
1 367 375 0
1 -367 -376 0
1 377 -378 0
1 -379 372 0
1 -379 377 0
1 -379 -244 0
1 -257 -380 0
1 254 372 0
1 254 -381 0
1 -378 -256 0
1 378 -265 0
1 -382 -383 0
1 384 -385 0
1 -265 256 0
1 -265 244 0
1 -256 386 0
1 256 -265 0
1 387 -388 0
1 387 -389 0
1 -388 378 0
1 380 270 0
1 380 390 0
1 -391 392 0
1 391 -393 0
1 -394 395 0
1 394 -387 0
1 381 256 0
1 -381 -396 0
1 270 389 0
1 -270 -252 0
1 -397 269 0
1 -274 -252 0
1 392 398 0
1 -398 -388 0
1 -398 399 0
1 252 -399 0
1 400 -401 0
1 389 388 0
1 402 -252 0
1 403 -399 0
1 404 -405 0
1 -404 -399 0
1 406 -402 0
1 407 399 0
1 -289 408 0
1 -289 272 0
1 -409 -401 0
1 287 -410 0
1 -411 290 0
1 411 412 0
1 -408 264 0
1 408 399 0
1 410 413 0
1 -414 -415 0
1 416 399 0
1 -295 -282 0
1 295 410 0
1 284 278 0
1 -284 -282 0
1 284 -412 0
1 -417 -297 0
1 -418 283 0
1 -419 418 0
1 -419 -411 0
1 412 295 0
1 412 420 0
1 -412 -421 0
1 -422 266 0
1 422 -423 0
1 424 -413 0
1 -424 287 0
1 301 425 0
1 301 -207 0
1 -301 283 0
1 -426 -283 0
1 303 427 0
1 303 423 0
1 -283 -312 0
1 427 428 0
1 -427 304 0
1 -429 -278 0
1 -430 431 0
1 -304 -432 0
1 -304 -309 0
1 304 -433 0
1 312 302 0
1 -312 300 0
1 -434 435 0
1 434 436 0
1 -434 -437 0
1 438 220 0
1 -433 439 0
1 -433 438 0
1 -433 440 0
1 -432 -433 0
1 432 304 0
1 441 -442 0
1 441 443 0
1 -294 -426 0
1 -444 -436 0
1 -444 -298 0
1 -445 435 0
1 445 298 0
1 445 -446 0
1 -440 308 0
1 440 447 0
1 439 436 0
1 -439 446 0
1 437 439 0
1 436 -448 0
1 435 -449 0
1 435 -440 0
1 -435 444 0
1 -450 437 0
1 -319 308 0
1 326 451 0
1 326 327 0
1 452 230 0
1 452 314 0
1 453 452 0
1 -454 -439 0
1 454 -440 0
1 -455 439 0
1 447 -456 0
1 447 457 0
1 447 -450 0
1 -458 451 0
1 459 460 0
1 -451 -461 0
1 -451 462 0
1 463 -464 0
1 -465 -318 0
1 346 466 0
1 346 345 0
1 -467 -468 0
1 467 -345 0
1 -462 338 0
1 462 -451 0
1 -462 -469 0
1 -466 464 0
1 -470 -458 0
1 -470 471 0
1 472 -470 0
1 472 473 0
1 -474 -475 0
1 -474 -338 0
1 476 -466 0
1 -476 469 0
1 -476 -333 0
1 -477 -478 0
1 -477 350 0
1 -477 -479 0
1 468 -480 0
1 468 474 0
1 333 481 0
1 333 -482 0
1 -333 -467 0
1 -333 468 0
1 333 483 0
1 -484 344 0
1 -484 -467 0
1 484 474 0
1 -484 -475 0
1 484 462 0
1 -475 481 0
1 475 485 0
1 -475 -477 0
1 351 486 0
1 -351 487 0
1 -351 488 0
1 -482 333 0
1 -489 -490 0
1 489 -468 0
1 478 351 0
1 478 491 0
1 -479 -492 0
1 479 491 0
1 -487 -491 0
1 493 355 0
1 493 -349 0
1 494 -495 0
1 -496 -364 0
1 490 497 0
1 498 -482 0
1 -498 499 0
1 364 -491 0
1 500 -355 0
1 -500 -501 0
1 -502 356 0
1 -502 -496 0
1 -503 501 0
1 -503 360 0
1 -495 492 0
1 495 494 0
1 -356 504 0
1 356 -503 0
1 501 497 0
1 -501 -505 0
1 501 -494 0
1 -504 -506 0
1 -504 507 0
1 508 506 0
1 508 507 0
1 509 -360 0
1 -510 -511 0
1 -510 512 0
1 510 513 0
1 514 -515 0
1 -516 517 0
1 -516 -374 0
1 -515 516 0
1 518 519 0
1 -518 -520 0
1 -521 -522 0
1 521 523 0
1 524 -525 0
1 -526 515 0
1 -374 527 0
1 528 -524 0
1 -525 -529 0
1 -527 374 0
1 -530 -529 0
1 -530 527 0
1 -376 265 0
1 531 375 0
1 -531 382 0
1 531 532 0
1 533 528 0
1 533 532 0
1 534 535 0
1 -536 537 0
1 536 -538 0
1 536 539 0
1 -540 539 0
1 -385 -386 0
1 396 -541 0
1 396 -274 0
1 -396 -371 0
1 -535 -542 0
1 535 -541 0
1 -535 -532 0
1 -371 370 0
1 -542 372 0
1 -542 543 0
1 542 544 0
1 542 545 0
1 -375 -546 0
1 393 -547 0
1 548 -399 0
1 -545 389 0
1 545 549 0
1 550 -551 0
1 -550 -548 0
1 -541 548 0
1 -541 -545 0
1 547 -552 0
1 547 -544 0
1 -553 554 0
1 553 -548 0
1 -553 544 0
1 555 289 0
1 401 390 0
1 -401 252 0
1 401 409 0
1 556 557 0
1 -556 -550 0
1 558 -549 0
1 -390 -559 0
1 -390 560 0
1 390 401 0
1 -561 562 0
1 -549 563 0
1 549 548 0
1 -564 -558 0
1 -405 295 0
1 405 -561 0
1 565 -561 0
1 -559 566 0
1 -559 -563 0
1 559 -416 0
1 -415 567 0
1 415 568 0
1 -557 -398 0
1 557 -413 0
1 -557 -405 0
1 -569 -570 0
1 -569 -556 0
1 -571 -572 0
1 571 556 0
1 -573 559 0
1 -573 574 0
1 -413 -575 0
1 576 -557 0
1 -577 567 0
1 577 -578 0
1 -577 579 0
1 -567 -580 0
1 -568 -559 0
1 566 576 0
1 575 -566 0
1 575 574 0
1 581 422 0
1 581 420 0
1 -582 -583 0
1 578 -584 0
1 -578 -585 0
1 578 586 0
1 -443 583 0
1 443 587 0
1 443 -430 0
1 442 294 0
1 -588 589 0
1 -590 -428 0
1 -589 -421 0
1 589 442 0
1 589 591 0
1 592 -588 0
1 583 590 0
1 583 -592 0
1 593 -594 0
1 593 -294 0
1 595 594 0
1 -595 596 0
1 595 589 0
1 597 -596 0
1 598 -456 0
1 -428 -457 0
1 -428 599 0
1 -600 -601 0
1 594 602 0
1 594 588 0
1 -599 -435 0
1 -603 598 0
1 -457 604 0
1 457 605 0
1 -606 -595 0
1 -606 -607 0
1 596 597 0
1 596 457 0
1 596 595 0
1 596 608 0
1 -604 -609 0
1 610 449 0
1 610 -605 0
1 611 -455 0
1 -612 449 0
1 -612 -605 0
1 613 448 0
1 605 -614 0
1 -448 -605 0
1 -615 -456 0
1 615 -616 0
1 449 -617 0
1 449 -613 0
1 -473 -618 0
1 -460 -470 0
1 -460 465 0
1 619 -620 0
1 -619 -621 0
1 -471 622 0
1 623 624 0
1 625 -626 0
1 618 -614 0
1 -621 473 0
1 -627 -470 0
1 -628 -475 0
1 -629 -630 0
1 620 -628 0
1 620 626 0
1 631 463 0
1 -631 -632 0
1 -631 -633 0
1 631 634 0
1 -635 636 0
1 -485 481 0
1 485 -637 0
1 485 -638 0
1 -485 333 0
1 -639 636 0
1 639 630 0
1 -640 633 0
1 -640 638 0
1 -638 499 0
1 -638 -485 0
1 -638 629 0
1 638 491 0
1 -630 -485 0
1 630 -629 0
1 -637 -641 0
1 637 640 0
1 -491 -487 0
1 491 -638 0
1 -491 642 0
1 -491 -479 0
1 -643 -644 0
1 -480 468 0
1 -645 484 0
1 -645 646 0
1 642 -647 0
1 642 -475 0
1 -648 -497 0
1 497 649 0
1 -505 -650 0
1 -651 -652 0
1 -651 -501 0
1 653 644 0
1 -653 -654 0
1 -655 497 0
1 -655 643 0
1 -656 657 0
1 -512 510 0
1 -654 506 0
1 -658 -506 0
1 659 660 0
1 -659 -661 0
1 -660 662 0
1 660 -512 0
1 -660 -659 0
1 663 664 0
1 -663 498 0
1 -652 -658 0
1 665 -660 0
1 665 -666 0
1 -665 -667 0
1 667 -668 0
1 -669 -670 0
1 -669 511 0
1 -671 670 0
1 -671 501 0
1 -671 672 0
1 666 658 0
1 -666 673 0
1 -674 675 0
1 676 -674 0
1 -676 -677 0
1 668 678 0
1 -668 -679 0
1 675 -680 0
1 679 -668 0
1 -679 -507 0
1 -679 681 0
1 -513 670 0
1 677 -682 0
1 -683 -517 0
1 -683 684 0
1 685 520 0
1 -685 686 0
1 687 688 0
1 -689 683 0
1 689 -690 0
1 -520 691 0
1 -684 692 0
1 -684 -693 0
1 691 683 0
1 -694 695 0
1 -694 -692 0
1 523 518 0
1 696 684 0
1 -697 698 0
1 -699 -700 0
1 699 -701 0
1 -699 -702 0
1 -699 539 0
1 -703 704 0
1 -705 -706 0
1 539 698 0
1 -702 707 0
1 702 540 0
1 707 -697 0
1 698 -537 0
1 -546 -708 0
1 546 709 0
1 -710 -395 0
1 710 532 0
1 -711 -375 0
1 711 709 0
1 -711 -712 0
1 -713 -712 0
1 -708 546 0
1 -708 702 0
1 708 -713 0
1 -714 537 0
1 714 -715 0
1 716 711 0
1 716 -717 0
1 552 553 0
1 552 538 0
1 -552 547 0
1 -552 712 0
1 718 -719 0
1 -718 -538 0
1 -718 720 0
1 718 -709 0
1 721 719 0
1 721 -720 0
1 -722 723 0
1 724 725 0
1 724 726 0
1 -724 -550 0
1 -727 -725 0
1 727 -724 0
1 -563 559 0
1 -563 722 0
1 726 -728 0
1 726 -563 0
1 726 718 0
1 726 723 0
1 726 -729 0
1 -726 721 0
1 -730 728 0
1 720 727 0
1 -725 -731 0
1 -725 -563 0
1 725 -732 0
1 -725 727 0
1 -733 730 0
1 -733 576 0
1 -733 -726 0
1 734 -571 0
1 734 -551 0
1 735 -554 0
1 551 574 0
1 736 -733 0
1 -737 -738 0
1 737 -547 0
1 -554 563 0
1 554 739 0
1 570 566 0
1 -570 736 0
1 -570 569 0
1 570 740 0
1 -741 -742 0
1 741 -566 0
1 -741 -743 0
1 -741 -551 0
1 -560 -744 0
1 560 741 0
1 -745 746 0
1 -745 747 0
1 -740 748 0
1 -747 -442 0
1 747 -749 0
1 747 575 0
1 750 -572 0
1 749 751 0
1 -749 -752 0
1 749 753 0
1 749 754 0
1 572 746 0
1 -572 755 0
1 572 -741 0
1 -755 572 0
1 -755 -756 0
1 584 -742 0
1 584 585 0
1 -754 580 0
1 -754 583 0
1 -580 -752 0
1 -580 -756 0
1 -757 -750 0
1 -758 586 0
1 -759 760 0
1 -759 589 0
1 -759 -421 0
1 602 -594 0
1 761 762 0
1 763 -764 0
1 -763 761 0
1 760 -765 0
1 -766 767 0
1 764 -762 0
1 762 759 0
1 762 -768 0
1 -601 -766 0
1 769 -770 0
1 -591 -771 0
1 591 772 0
1 773 774 0
1 770 -609 0
1 770 -773 0
1 -770 -765 0
1 771 591 0
1 608 -606 0
1 608 460 0
1 617 -775 0
1 -617 -449 0
1 -617 776 0
1 -775 -777 0
1 778 -622 0
1 -779 594 0
1 -779 780 0
1 779 -617 0
1 779 609 0
1 779 -781 0
1 -616 775 0
1 616 -605 0
1 782 783 0
1 782 -784 0
1 -785 -786 0
1 -607 -636 0
1 -607 -787 0
1 -776 777 0
1 -776 785 0
1 788 789 0
1 790 631 0
1 -790 -621 0
1 -790 625 0
1 790 781 0
1 790 -791 0
1 636 -792 0
1 -791 -793 0
1 -794 636 0
1 -794 793 0
1 784 -789 0
1 -784 790 0
1 -784 -785 0
1 -786 636 0
1 786 782 0
1 795 -637 0
1 795 791 0
1 -641 -632 0
1 -641 796 0
1 -624 -797 0
1 -798 636 0
1 798 799 0
1 798 633 0
1 792 800 0
1 -647 -630 0
1 -647 801 0
1 -647 -802 0
1 646 803 0
1 -646 -645 0
1 -646 804 0
1 -646 805 0
1 806 807 0
1 -806 -799 0
1 -806 -803 0
1 -806 645 0
1 806 -808 0
1 807 620 0
1 802 -807 0
1 632 808 0
1 -632 -646 0
1 -657 -809 0
1 -657 512 0
1 -657 810 0
1 811 654 0
1 -811 -655 0
1 812 -813 0
1 -809 -806 0
1 -814 638 0
1 -814 -813 0
1 803 811 0
1 -810 813 0
1 -810 815 0
1 810 646 0
1 816 664 0
1 -816 -817 0
1 664 -818 0
1 -819 652 0
1 -817 664 0
1 817 820 0
1 -821 -661 0
1 822 -818 0
1 -823 824 0
1 823 -674 0
1 -678 668 0
1 825 -678 0
1 824 -644 0
1 -824 -826 0
1 -824 678 0
1 -824 -827 0
1 828 -829 0
1 -829 -830 0
1 682 666 0
1 682 831 0
1 682 -669 0
1 -832 -833 0
1 -832 -830 0
1 -832 -513 0
1 834 835 0
1 -836 677 0
1 -836 513 0
1 -837 -834 0
1 -662 825 0
1 -833 -826 0
1 838 652 0
1 838 682 0
1 -838 -833 0
1 839 -840 0
1 680 841 0
1 -680 -513 0
1 841 842 0
1 -672 834 0
1 672 843 0
1 -673 839 0
1 844 -845 0
1 846 847 0
1 -846 840 0
1 842 -847 0
1 -842 -840 0
1 848 844 0
1 848 -846 0
1 -849 845 0
1 -849 -850 0
1 851 852 0
1 853 854 0
1 -853 -690 0
1 -853 -855 0
1 -852 -856 0
1 852 857 0
1 -858 -855 0
1 858 852 0
1 -859 852 0
1 856 860 0
1 861 -689 0
1 861 -862 0
1 861 687 0
1 -863 689 0
1 695 -864 0
1 695 865 0
1 -866 867 0
1 -868 862 0
1 868 -861 0
1 -857 866 0
1 -857 863 0
1 857 695 0
1 867 -869 0
1 -867 857 0
1 -870 871 0
1 -870 -539 0
1 -872 -871 0
1 872 873 0
1 -872 -705 0
1 -872 -870 0
1 -874 -875 0
1 -874 876 0
1 865 -877 0
1 -878 689 0
1 -878 879 0
1 -878 880 0
1 -878 881 0
1 -706 -882 0
1 -882 -883 0
1 882 -876 0
1 -884 -700 0
1 884 711 0
1 885 698 0
1 -885 -876 0
1 886 -885 0
1 -887 -888 0
1 887 -877 0
1 -875 -889 0
1 875 880 0
1 875 706 0
1 875 -874 0
1 890 -891 0
1 -890 -704 0
1 890 892 0
1 -715 893 0
1 715 -876 0
1 -715 891 0
1 -894 895 0
1 894 -700 0
1 -700 -896 0
1 -700 -704 0
1 -700 717 0
1 704 892 0
1 -895 -897 0
1 895 -890 0
1 895 891 0
1 891 -895 0
1 891 -705 0
1 -891 -898 0
1 717 -708 0
1 717 -538 0
1 896 -899 0
1 896 900 0
1 -896 -538 0
1 -896 -901 0
1 -896 -902 0
1 -900 732 0
1 903 -732 0
1 899 -904 0
1 899 905 0
1 -906 907 0
1 -906 908 0
1 -909 719 0
1 909 712 0
1 910 902 0
1 -911 912 0
1 913 -914 0
1 -902 915 0
1 -916 -917 0
1 -916 -905 0
1 -901 -896 0
1 -728 725 0
1 918 914 0
1 -919 -920 0
1 919 -921 0
1 -919 722 0
1 -919 732 0
1 -920 748 0
1 912 -728 0
1 912 -538 0
1 912 922 0
1 912 915 0
1 923 924 0
1 -923 -732 0
1 748 -736 0
1 729 739 0
1 729 744 0
1 -925 746 0
1 -925 739 0
1 -925 729 0
1 926 927 0
1 731 928 0
1 744 586 0
1 -746 -925 0
1 -746 929 0
1 930 925 0
1 930 927 0
1 929 931 0
1 929 -744 0
1 932 -921 0
1 933 742 0
1 933 759 0
1 933 934 0
1 -751 602 0
1 935 753 0
1 -935 934 0
1 936 -937 0
1 936 -753 0
1 -934 938 0
1 -938 -939 0
1 -938 745 0
1 940 740 0
1 -940 941 0
1 -942 -935 0
1 -943 938 0
1 943 944 0
1 945 774 0
1 -945 946 0
1 753 943 0
1 -753 -947 0
1 -948 -949 0
1 -948 -943 0
1 -950 936 0
1 -950 949 0
1 -950 951 0
1 950 946 0
1 -774 617 0
1 952 -953 0
1 -954 -955 0
1 -954 -956 0
1 954 -765 0
1 -953 -957 0
1 -953 -952 0
1 -958 959 0
1 -958 960 0
1 -961 772 0
1 -957 -770 0
1 -962 -953 0
1 962 768 0
1 -962 767 0
1 -962 -963 0
1 964 -778 0
1 964 -963 0
1 -767 -965 0
1 -966 967 0
1 966 952 0
1 -781 777 0
1 781 -767 0
1 -968 776 0
1 -969 -970 0
1 -970 -777 0
1 -970 -971 0
1 -970 -972 0
1 -973 972 0
1 -974 975 0
1 -976 -965 0
1 -976 786 0
1 976 -977 0
1 -976 978 0
1 789 -788 0
1 -972 796 0
1 -972 -979 0
1 978 -783 0
1 -978 -805 0
1 -980 968 0
1 977 968 0
1 977 -796 0
1 -780 -789 0
1 800 -786 0
1 -800 -784 0
1 799 -981 0
1 981 -982 0
1 -982 796 0
1 983 799 0
1 983 793 0
1 797 792 0
1 -797 -984 0
1 985 982 0
1 986 632 0
1 984 -987 0
1 988 -799 0
1 -988 -989 0
1 -988 990 0
1 991 632 0
1 991 810 0
1 -992 803 0
1 987 -993 0
1 -987 -994 0
1 -995 987 0
1 -996 -997 0
1 -815 818 0
1 998 815 0
1 -999 994 0
1 -999 -818 0
1 -999 -1000 0
1 999 1001 0
1 -1002 1003 0
1 994 830 0
1 1004 1005 0
1 -830 -828 0
1 830 -1000 0
1 -830 832 0
1 1006 1007 0
1 1008 828 0
1 1008 1009 0
1 -1007 809 0
1 -1007 1010 0
1 1001 1011 0
1 1001 -1012 0
1 1013 1014 0
1 -1013 999 0
1 826 -839 0
1 1015 -835 0
1 -1015 680 0
1 1010 1011 0
1 -820 817 0
1 1016 826 0
1 -1016 1015 0
1 -1017 1018 0
1 1017 -1019 0
1 1017 -1020 0
1 -1017 -1012 0
1 1017 1015 0
1 -1021 1011 0
1 1021 1010 0
1 -1021 -1015 0
1 -843 -1022 0
1 -843 -1016 0
1 -1023 -1024 0
1 1025 -843 0
1 1025 -835 0
1 1025 -1026 0
1 1027 1028 0
1 1027 -1026 0
1 -1029 -1010 0
1 -1029 -1026 0
1 -1022 -1030 0
1 1031 845 0
1 -1031 -1032 0
1 1033 1034 0
1 -1033 -673 0
1 -1033 1025 0
1 -1035 1024 0
1 1035 -1034 0
1 -1028 -1034 0
1 -1028 1036 0
1 1028 1037 0
1 -1028 -1035 0
1 -1032 -1038 0
1 1034 1028 0
1 1034 -1039 0
1 1024 -1035 0
1 1038 1040 0
1 -1041 -847 0
1 -1041 1040 0
1 1042 1034 0
1 1040 1043 0
1 -1044 -1045 0
1 -1044 -1046 0
1 -1047 1048 0
1 -1047 1042 0
1 -1047 -1035 0
1 -1046 -1049 0
1 1046 1040 0
1 -1045 1040 0
1 -1050 -1043 0
1 1050 1048 0
1 -1051 -1043 0
1 1049 -1045 0
1 -1052 1053 0
1 -1052 -1054 0
1 1052 -1055 0
1 -1054 -1052 0
1 -1053 873 0
1 -1056 1057 0
1 -883 878 0
1 1058 1059 0
1 -1060 1053 0
1 1060 1061 0
1 -1060 1062 0
1 -1063 -869 0
1 -1061 -893 0
1 -1055 -869 0
1 1055 -1058 0
1 880 865 0
1 -1064 1065 0
1 -1064 -1063 0
1 893 1065 0
1 893 -1063 0
1 -893 1066 0
1 -1062 -1067 0
1 1062 -897 0
1 1062 1068 0
1 -1062 -893 0
1 1069 1064 0
1 -1059 1070 0
1 -1065 867 0
1 1065 -1070 0
1 -1071 1062 0
1 1071 897 0
1 -1071 -875 0
1 898 -1072 0
1 -898 -895 0
1 898 1062 0
1 -1073 1074 0
1 1066 -1075 0
1 1066 -893 0
1 879 -1076 0
1 -1074 -1077 0
1 -908 -704 0
1 1078 1079 0
1 -1078 889 0
1 -1080 1078 0
1 -1072 -1081 0
1 -1072 1077 0
1 1072 1082 0
1 -1077 -1078 0
1 888 -1083 0
1 -888 1084 0
1 888 -1074 0
1 -888 1067 0
1 -888 -1085 0
1 888 1086 0
1 -889 -1075 0
1 889 -1087 0
1 889 -1088 0
1 1089 907 0
1 -1089 1090 0
1 907 -1079 0
1 -907 -916 0
1 -1091 1079 0
1 1092 1093 0
1 -1094 1095 0
1 1096 -1089 0
1 -1096 -1097 0
1 -1096 1098 0
1 -1090 1099 0
1 1090 -1080 0
1 -1100 -1079 0
1 1101 1102 0
1 1103 927 0
1 1103 -1104 0
1 -1105 1104 0
1 904 -1106 0
1 1093 1107 0
1 -922 -1105 0
1 922 -1095 0
1 -1108 1109 0
1 1108 -1110 0
1 927 1111 0
1 -1112 -937 0
1 1112 1113 0
1 -1112 -1101 0
1 -1112 -922 0
1 -1114 1115 0
1 1102 916 0
1 1110 -927 0
1 1110 1113 0
1 1110 -901 0
1 1110 1116 0
1 -931 928 0
1 931 929 0
1 -928 -729 0
1 1117 -944 0
1 1111 -1118 0
1 1109 1119 0
1 -1109 931 0
1 924 937 0
1 924 1120 0
1 -1118 -929 0
1 -1121 1122 0
1 1121 1111 0
1 1121 -932 0
1 -944 1111 0
1 944 1123 0
1 1124 1125 0
1 -1124 939 0
1 1124 1126 0
1 -1127 925 0
1 -1127 1128 0
1 -1129 -944 0
1 1130 1128 0
1 939 -1127 0
1 -1131 -939 0
1 1132 -948 0
1 1126 -948 0
1 1126 1133 0
1 1134 1135 0
1 1134 1132 0
1 -1134 1136 0
1 1136 -944 0
1 1136 951 0
1 1137 -1138 0
1 -951 -950 0
1 1139 -962 0
1 -1139 -1140 0
1 -1141 -1139 0
1 -1142 -1143 0
1 1142 955 0
1 1142 -1144 0
1 -1140 -1132 0
1 1140 1141 0
1 941 1144 0
1 1133 1145 0
1 1133 -1135 0
1 -1133 -1139 0
1 -1133 -1146 0
1 955 777 0
1 955 1135 0
1 -955 -1147 0
1 956 -781 0
1 967 1148 0
1 -967 -1149 0
1 -967 -768 0
1 -1150 -1151 0
1 -1151 -965 0
1 -1151 1152 0
1 -1151 -967 0
1 1151 956 0
1 1151 -1153 0
1 -1151 1141 0
1 -1149 -1152 0
1 1149 -1154 0
1 1147 1149 0
1 1155 -965 0
1 1155 -1156 0
1 1155 -966 0
1 1157 1150 0
1 1158 965 0
1 1158 1159 0
1 -1158 967 0
1 -1158 -953 0
1 -1156 -1160 0
1 1156 -1161 0
1 -1162 965 0
1 -1162 1154 0
1 975 -977 0
1 -975 1158 0
1 1159 -780 0
1 -1163 -1164 0
1 1163 -1165 0
1 1166 1167 0
1 -1166 971 0
1 1168 -1169 0
1 -1170 -1169 0
1 1170 -1166 0
1 -1170 -1171 0
1 -1170 1163 0
1 -1170 -975 0
1 -1164 1172 0
1 1164 1173 0
1 1174 780 0
1 1174 1170 0
1 -1175 1170 0
1 -1176 1175 0
1 -1176 1177 0
1 971 -1176 0
1 -1178 -973 0
1 1179 -1174 0
1 -1177 1174 0
1 -990 -991 0
1 1180 -983 0
1 -1180 982 0
1 -1181 -988 0
1 -1182 -1183 0
1 -1182 -1178 0
1 1182 1184 0
1 1185 1182 0
1 -1185 -990 0
1 -1186 -989 0
1 -1184 1182 0
1 -1187 -1176 0
1 989 1186 0
1 -989 815 0
1 -989 -1188 0
1 1189 -1190 0
1 -1189 988 0
1 -1191 1192 0
1 -1191 1193 0
1 1191 1194 0
1 -1191 1195 0
1 1191 1196 0
1 1195 993 0
1 1195 1197 0
1 1195 1193 0
1 1194 -1198 0
1 -1190 1194 0
1 -1190 1195 0
1 1197 -1191 0
1 1199 -1005 0
1 -1196 -1200 0
1 -1196 -1199 0
1 -1201 -1202 0
1 1201 1009 0
1 -1201 -1203 0
1 -1204 1205 0
1 -1204 1198 0
1 -1204 -1200 0
1 -1204 -1202 0
1 1206 -1198 0
1 -1207 1208 0
1 -1207 1196 0
1 1014 997 0
1 -1014 1209 0
1 1210 1003 0
1 1210 -1009 0
1 1211 1212 0
1 1211 1009 0
1 -1213 1214 0
1 1213 1215 0
1 1213 -1009 0
1 997 1206 0
1 997 -1216 0
1 -997 -1207 0
1 -997 -1009 0
1 -1217 -1021 0
1 -1209 -1018 0
1 -1218 -1019 0
1 1019 1219 0
1 -1030 -1220 0
1 1221 -1020 0
1 1221 1222 0
1 -1223 -1037 0
1 -1224 -1022 0
1 1224 1225 0
1 1226 -1227 0
1 1226 -1228 0
1 -1229 1227 0
1 1229 -1230 0
1 1231 1232 0
1 1231 -1226 0
1 -1231 1030 0
1 1233 -1234 0
1 -1233 1235 0
1 -1233 1034 0
1 1233 1227 0
1 1236 1036 0
1 1236 1047 0
1 1232 -1237 0
1 1227 -1233 0
1 1227 1236 0
1 1227 -1039 0
1 1237 1236 0
1 1238 1234 0
1 1238 -1233 0
1 1239 1063 0
1 1240 1241 0
1 1242 -1240 0
1 1243 1054 0
1 1243 1070 0
1 -1244 -1070 0
1 1245 1240 0
1 1246 1066 0
1 1076 1247 0
1 -1076 1248 0
1 1241 1240 0
1 1241 1246 0
1 -1249 -1076 0
1 -1250 1076 0
1 -1088 -1251 0
1 1084 -1241 0
1 -1086 -1248 0
1 1086 1252 0
1 -1068 -1084 0
1 -1068 1247 0
1 -1068 1253 0
1 1248 1254 0
1 1248 1085 0
1 -1248 -1076 0
1 1248 1098 0
1 1255 1256 0
1 1251 1257 0
1 1251 1086 0
1 1251 -1088 0
1 -1082 1258 0
1 -1085 1248 0
1 1097 1259 0
1 -1097 1087 0
1 1258 1107 0
1 1258 1086 0
1 -1258 -1098 0
1 1260 1107 0
1 -1261 1084 0
1 -1261 1252 0
1 1261 -1085 0
1 -1252 -1084 0
1 1252 -879 0
1 -1252 -1085 0
1 1095 -1081 0
1 -1095 1260 0
1 1099 1096 0
1 -1099 -904 0
1 1262 1081 0
1 1262 -1260 0
1 1107 1263 0
1 1264 -1081 0
1 -1264 1098 0
1 -1083 -1265 0
1 -1083 1097 0
1 -1087 -1095 0
1 1266 1105 0
1 -1267 -1263 0
1 -1267 1119 0
1 -1268 -1265 0
1 1268 1269 0
1 -1263 -1079 0
1 -1263 1107 0
1 1263 1270 0
1 1271 -1262 0
1 -1272 1273 0
1 -1272 -1104 0
1 -1272 -1274 0
1 -1120 1122 0
1 -1120 1110 0
1 -1270 1269 0
1 -1275 1109 0
1 -1275 -1116 0
1 1276 -1122 0
1 -1276 -1268 0
1 1276 1277 0
1 1276 -1278 0
1 1276 1270 0
1 -1276 -1279 0
1 -1276 -1120 0
1 1276 -1280 0
1 -1279 1268 0
1 -1279 -1105 0
1 -1279 -1280 0
1 1106 904 0
1 -1269 -1281 0
1 1269 -1282 0
1 1283 924 0
1 1284 1285 0
1 -1284 1276 0
1 -1284 -1286 0
1 1284 -1116 0
1 1287 1115 0
1 1288 1128 0
1 -1288 -1280 0
1 -1115 1270 0
1 -1115 -1289 0
1 -1115 1128 0
1 -1116 -1281 0
1 1125 -1290 0
1 1125 -1288 0
1 -1125 1128 0
1 -1289 -1288 0
1 -1290 -1125 0
1 1290 -1291 0
1 -1292 -1125 0
1 -1292 -1287 0
1 -1135 -1293 0
1 1135 -1286 0
1 -1135 1294 0
1 1295 1290 0
1 1295 -1296 0
1 1145 1286 0
1 1145 941 0
1 -1294 -1124 0
1 -1297 -1291 0
1 -1298 -1135 0
1 1298 1299 0
1 -1298 1291 0
1 1300 1301 0
1 -1300 -1298 0
1 1144 1147 0
1 1302 1143 0
1 -1302 -1303 0
1 1302 1304 0
1 -1305 1303 0
1 1305 1157 0
1 -1305 1306 0
1 1307 -1145 0
1 -1303 -1161 0
1 1303 1305 0
1 1306 -1308 0
1 1309 -1144 0
1 1309 1310 0
1 -1165 1304 0
1 1161 -1153 0
1 1143 1165 0
1 1143 -1154 0
1 -1304 -1143 0
1 1304 -1152 0
1 -1304 1311 0
1 -1146 1133 0
1 1146 -1305 0
1 -1146 1312 0
1 1146 1154 0
1 1160 -1167 0
1 -1160 1153 0
1 1313 1143 0
1 -1313 -1314 0
1 1313 -1315 0
1 -1313 -1316 0
1 1317 1313 0
1 -1153 1318 0
1 -1314 -1161 0
1 1316 1319 0
1 1316 -1161 0
1 -1171 -1177 0
1 -1169 -1320 0
1 1318 1153 0
1 1318 -1321 0
1 -1183 -1177 0
1 -1322 1183 0
1 -1322 1167 0
1 1322 -1188 0
1 -1323 -1322 0
1 -1323 -1324 0
1 -1323 -1318 0
1 -1315 -1319 0
1 -1325 -1326 0
1 -1188 -1327 0
1 -1328 -1327 0
1 -1329 -1330 0
1 1172 -1331 0
1 1327 -1324 0
1 1327 1318 0
1 -1327 1332 0
1 1330 1186 0
1 1330 1324 0
1 -1330 1333 0
1 -1334 -1193 0
1 1335 1336 0
1 1335 -1337 0
1 1335 -1321 0
1 -1333 -1192 0
1 1336 1335 0
1 1338 -1339 0
1 1338 1179 0
1 -1338 -1340 0
1 1341 -1340 0
1 1198 -1190 0
1 1202 -1333 0
1 1202 1207 0
1 -1342 -1336 0
1 -1342 1201 0
1 1343 -1344 0
1 -1345 1216 0
1 -1345 1346 0
1 -1347 1348 0
1 -1349 -1337 0
1 1337 -1350 0
1 1337 1351 0
1 1205 -1217 0
1 1352 -1353 0
1 1354 1194 0
1 -1353 1355 0
1 1344 1343 0
1 -1344 1356 0
1 1344 -1357 0
1 1358 -1359 0
1 -1219 -1210 0
1 1219 1358 0
1 -1360 1361 0
1 -1360 -1362 0
1 -1363 1364 0
1 -1361 -1360 0
1 1365 1214 0
1 1365 1366 0
1 1364 -1214 0
1 1222 1365 0
1 -1367 1221 0
1 -1367 -1212 0
1 -1367 -1223 0
1 -1368 1369 0
1 -1368 1212 0
1 -1370 -1361 0
1 1215 -1366 0
1 -1369 -1215 0
1 1371 -1225 0
1 1235 1372 0
1 -1235 1221 0
1 1373 -1374 0
1 -1375 1255 0
1 -1257 1376 0
1 1377 -1378 0
1 1377 -1379 0
1 1377 1255 0
1 -1380 1381 0
1 1380 1259 0
1 -1381 1256 0
1 -1382 1375 0
1 1256 -1383 0
1 1256 1255 0
1 1254 -1378 0
1 -1254 -1379 0
1 1254 -1256 0
1 -1384 1385 0
1 -1386 -1385 0
1 1386 1253 0
1 -1387 1388 0
1 -1387 -1254 0
1 1387 1389 0
1 -1378 -1249 0
1 -1378 -1386 0
1 1378 1384 0
1 1379 -1389 0
1 -1383 -1389 0
1 1390 1087 0
1 1388 -1385 0
1 1391 1392 0
1 -1265 -1378 0
1 1265 -1387 0
1 1253 1393 0
1 1253 -1391 0
1 1385 1394 0
1 -1385 -1386 0
1 -1395 1396 0
1 1397 1391 0
1 -1398 -1264 0
1 1398 1273 0
1 -1394 -1399 0
1 1394 1272 0
1 1400 -1270 0
1 -1399 -1394 0
1 1399 -1401 0
1 1399 -1258 0
1 1402 1403 0
1 1402 -1404 0
1 1402 -1400 0
1 -1404 1405 0
1 1404 1406 0
1 1404 -1407 0
1 1408 -1409 0
1 -1408 1392 0
1 1408 -1271 0
1 -1274 -1280 0
1 1401 1409 0
1 1409 1281 0
1 -1410 1411 0
1 -1412 -1413 0
1 -1412 1274 0
1 -1414 -1408 0
1 -1414 -1087 0
1 -1414 -1415 0
1 1277 -1409 0
1 1277 1416 0
1 -1281 1409 0
1 -1417 -1409 0
1 1417 1418 0
1 -1416 -1419 0
1 -1420 -1277 0
1 1420 1421 0
1 -1420 1417 0
1 -1293 1422 0
1 1293 -1423 0
1 1424 1425 0
1 -1424 -1426 0
1 -1427 -1428 0
1 1278 -1422 0
1 -1426 1293 0
1 1429 1424 0
1 -1425 -1427 0
1 1430 -1431 0
1 -1432 -1430 0
1 1433 -1299 0
1 -1433 1434 0
1 1299 -1435 0
1 1434 1430 0
1 1434 1436 0
1 -1434 1437 0
1 1431 -1438 0
1 -1431 1299 0
1 1431 1115 0
1 1435 -1439 0
1 -1435 1440 0
1 -1440 -1441 0
1 1440 -1442 0
1 1308 1152 0
1 -1437 1306 0
1 -1437 1165 0
1 -1438 1443 0
1 1444 -1445 0
1 1444 1446 0
1 1447 -1448 0
1 1447 -1444 0
1 -1447 -1437 0
1 -1447 -1310 0
1 1449 -1433 0
1 1449 1308 0
1 1450 1285 0
1 1450 -1449 0
1 -1446 -1443 0
1 1446 -1451 0
1 1452 -1453 0
1 1452 1446 0
1 -1454 -1444 0
1 1454 1455 0
1 -1448 -1453 0
1 1453 -1438 0
1 1453 -1446 0
1 1301 1456 0
1 1301 -1457 0
1 1311 -1314 0
1 1311 1458 0
1 1311 -1304 0
1 -1311 -1443 0
1 1311 -1459 0
1 1311 1312 0
1 1460 1461 0
1 1462 1318 0
1 -1463 -1459 0
1 -1461 1464 0
1 1458 -1319 0
1 1458 -1460 0
1 1459 -1465 0
1 1459 -1464 0
1 1326 -1466 0
1 -1326 -1461 0
1 1467 -1468 0
1 -1467 1461 0
1 1469 1470 0
1 -1469 1471 0
1 -1468 1472 0
1 1468 -1473 0
1 -1468 1469 0
1 -1474 -1467 0
1 1474 1475 0
1 1476 -1463 0
1 1476 -1477 0
1 1476 -1469 0
1 1466 1472 0
1 1466 1326 0
1 1466 -1469 0
1 1324 -1325 0
1 1475 -1468 0
1 -1475 -1470 0
1 1475 1325 0
1 1478 -1468 0
1 -1478 -1172 0
1 -1479 -1480 0
1 1470 1467 0
1 -1471 1470 0
1 -1331 -1172 0
1 -1481 1482 0
1 -1481 -1483 0
1 -1484 -1322 0
1 1483 -1485 0
1 -1483 1339 0
1 1486 1487 0
1 1486 1473 0
1 -1488 1489 0
1 -1351 1490 0
1 -1351 1491 0
1 1492 -1357 0
1 -1493 -1340 0
1 -1494 -1495 0
1 1494 1340 0
1 1346 1496 0
1 1346 -1497 0
1 1498 1499 0
1 -1498 1347 0
1 1498 -1493 0
1 1357 -1492 0
1 -1357 1360 0
1 1500 -1350 0
1 -1500 1501 0
1 1497 -1502 0
1 1497 1346 0
1 -1496 1338 0
1 -1499 -1500 0
1 -1503 -1344 0
1 -1503 -1359 0
1 -1503 -1356 0
1 1355 1497 0
1 1355 -1356 0
1 -1502 -1504 0
1 1502 -1364 0
1 -1505 1490 0
1 1505 1370 0
1 1505 1348 0
1 1505 1506 0
1 1507 1505 0
1 1348 -1357 0
1 1506 1508 0
1 -1366 1361 0
1 -1509 -1507 0
1 1510 -1511 0
1 1512 1215 0
1 1512 1510 0
1 1511 1354 0
1 -1389 -1378 0
1 1513 -1383 0
1 1514 1515 0
1 -1515 1516 0
1 -1517 1518 0
1 -1517 -1514 0
1 -1517 1519 0
1 1520 -1513 0
1 -1520 1521 0
1 -1520 -1393 0
1 1520 1389 0
1 -1522 1513 0
1 1523 -1382 0
1 -1524 -1403 0
1 1524 1514 0
1 -1516 -1403 0
1 -1403 1396 0
1 -1525 -1516 0
1 -1525 1403 0
1 -1525 -1396 0
1 -1525 -1414 0
1 -1526 -1414 0
1 -1526 -1527 0
1 -1528 -1529 0
1 1528 -1530 0
1 1528 -1531 0
1 1528 1532 0
1 -1528 1396 0
1 1533 -1534 0
1 1533 -1411 0
1 -1411 1535 0
1 1536 -1535 0
1 1536 1537 0
1 1428 -1527 0
1 1538 -1539 0
1 -1540 1533 0
1 1540 -1421 0
1 1527 1539 0
1 -1527 1541 0
1 -1527 1542 0
1 -1534 -1533 0
1 -1534 -1404 0
1 -1534 -1428 0
1 1419 -1421 0
1 -1421 1538 0
1 1543 -1413 0
1 1543 1544 0
1 1543 -1545 0
1 -1546 1299 0
1 -1546 1542 0
1 -1546 -1547 0
1 1544 1548 0
1 1544 -1442 0
1 1544 -1421 0
1 -1413 1428 0
1 1549 1544 0
1 -1549 -1550 0
1 -1549 1278 0
1 1442 1545 0
1 -1442 1440 0
1 -1441 1544 0
1 1441 -1438 0
1 -1441 -1551 0
1 -1441 1552 0
1 -1553 1439 0
1 1553 -1554 0
1 1553 1555 0
1 1555 1556 0
1 1555 1441 0
1 1555 -1455 0
1 -1545 -1548 0
1 -1545 1557 0
1 1545 1554 0
1 -1558 1555 0
1 -1559 1449 0
1 -1560 1439 0
1 -1560 1278 0
1 1560 -1561 0
1 1561 -1457 0
1 -1561 1558 0
1 -1561 -1426 0
1 -1551 -1441 0
1 1551 -1562 0
1 -1552 -1455 0
1 1457 1563 0
1 1457 -1564 0
1 1457 -1562 0
1 1457 -1565 0
1 -1564 1556 0
1 1564 1449 0
1 1566 1567 0
1 1566 -1436 0
1 1566 -1568 0
1 1566 -1565 0
1 -1569 -1563 0
1 1569 -1436 0
1 1563 -1569 0
1 1567 1570 0
1 -1565 1571 0
1 -1572 1563 0
1 -1573 1574 0
1 1445 1464 0
1 1575 -1566 0
1 -1576 -1571 0
1 -1576 -1449 0
1 -1576 -1577 0
1 1576 1578 0
1 1477 1579 0
1 1477 1580 0
1 -1581 -1582 0
1 1581 1478 0
1 1574 -1573 0
1 -1580 1583 0
1 1472 -1470 0
1 -1584 -1585 0
1 -1586 1587 0
1 1586 -1588 0
1 1586 -1585 0
1 1589 1590 0
1 1587 1585 0
1 -1588 1591 0
1 -1487 1592 0
1 -1487 1479 0
1 -1487 1585 0
1 1593 -1470 0
1 -1593 -1585 0
1 1594 1595 0
1 -1491 -1596 0
1 -1590 1501 0
1 -1590 -1589 0
1 -1597 -1485 0
1 1597 1586 0
1 1598 -1586 0
1 1598 1599 0
1 -1485 1590 0
1 -1485 -1600 0
1 1600 -1489 0
1 1601 1602 0
1 -1501 1590 0
1 -1501 1603 0
1 -1604 -1495 0
1 -1604 -1601 0
1 -1605 -1606 0
1 -1607 1602 0
1 1607 1608 0
1 1602 1600 0
1 1602 1471 0
1 1609 -1604 0
1 -1495 -1499 0
1 1495 -1604 0
1 -1495 -1610 0
1 -1495 -1493 0
1 -1606 1611 0
1 -1611 -1505 0
1 -1612 1609 0
1 1613 1501 0
1 1603 1611 0
1 -1603 1495 0
1 -1603 -1614 0
1 1603 1615 0
1 1603 -1609 0
1 1610 1609 0
1 1616 -1612 0
1 1616 -1617 0
1 -1618 -1350 0
1 1618 1506 0
1 1618 1619 0
1 1508 1350 0
1 1620 1621 0
1 1622 1620 0
1 1623 1616 0
1 -1617 -1611 0
1 1619 -1508 0
1 1532 1521 0
1 -1532 -1411 0
1 -1532 -1624 0
1 -1625 -1519 0
1 -1521 -1626 0
1 1627 1628 0
1 1529 1629 0
1 1531 -1629 0
1 1531 -1519 0
1 1630 -1631 0
1 1632 1539 0
1 1632 -1630 0
1 -1633 -1634 0
1 -1631 1635 0
1 1539 1527 0
1 1541 1534 0
1 1636 1441 0
1 1637 -1541 0
1 1638 1530 0
1 1638 1639 0
1 1530 -1630 0
1 1530 -1528 0
1 1530 1640 0
1 -1530 -1638 0
1 -1530 -1639 0
1 -1557 -1550 0
1 -1548 -1641 0
1 1642 1550 0
1 1642 1641 0
1 1643 -1548 0
1 1644 1642 0
1 1645 1646 0
1 -1645 -1642 0
1 -1645 -1647 0
1 -1562 -1648 0
1 1562 -1649 0
1 -1556 -1646 0
1 1556 1551 0
1 -1556 1562 0
1 -1568 -1650 0
1 1568 1649 0
1 1568 1566 0
1 -1650 -1643 0
1 1650 -1648 0
1 1651 1652 0
1 1652 -1653 0
1 -1648 -1654 0
1 1648 -1642 0
1 -1648 -1655 0
1 1648 -1568 0
1 -1649 -1654 0
1 1649 -1656 0
1 -1649 -1648 0
1 1649 -1642 0
1 -1649 -1655 0
1 1657 -1653 0
1 1657 -1561 0
1 1653 -1658 0
1 1653 -1659 0
1 -1653 -1561 0
1 -1570 1651 0
1 -1570 1660 0
1 1661 -1662 0
1 -1663 1664 0
1 -1663 -1665 0
1 -1663 1666 0
1 -1579 1477 0
1 1660 1570 0
1 1660 1583 0
1 1662 -1579 0
1 -1662 1578 0
1 1667 -1668 0
1 1667 -1669 0
1 1667 1670 0
1 1671 1669 0
1 1583 -1582 0
1 -1583 1672 0
1 -1673 1579 0
1 -1674 -1673 0
1 -1675 -1668 0
1 -1676 -1677 0
1 1676 1583 0
1 -1676 -1678 0
1 -1592 1679 0
1 1679 -1593 0
1 -1679 1588 0
1 1595 -1674 0
1 1595 -1680 0
1 -1672 -1681 0
1 1682 1672 0
1 -1577 1683 0
1 1577 -1684 0
1 1577 1685 0
1 -1577 1686 0
1 -1687 1688 0
1 1687 -1689 0
1 -1687 1596 0
1 -1687 -1686 0
1 1681 -1690 0
1 1681 1588 0
1 -1691 1600 0
1 1692 -1690 0
1 -1690 1608 0
1 1693 -1692 0
1 1693 1694 0
1 1695 1696 0
1 -1695 -1580 0
1 -1680 1695 0
1 -1680 1595 0
1 1680 1697 0
1 -1680 -1686 0
1 -1599 1590 0
1 1599 1698 0
1 -1699 1602 0
1 -1700 -1585 0
1 1591 -1701 0
1 1591 -1696 0
1 -1702 -1703 0
1 -1702 1692 0
1 -1615 1704 0
1 -1615 1610 0
1 1705 -1700 0
1 -1614 1508 0
1 -1706 1699 0
1 -1707 1557 0
1 1708 1626 0
1 1708 1530 0
1 1708 1707 0
1 -1640 -1709 0
1 1710 1642 0
1 1709 -1711 0
1 -1709 -1710 0
1 -1626 -1646 0
1 -1712 1713 0
1 1714 1626 0
1 -1714 -1638 0
1 1646 1530 0
1 1715 -1716 0
1 -1715 1717 0
1 -1711 1718 0
1 1719 1656 0
1 1719 -1715 0
1 1719 1714 0
1 -1720 -1721 0
1 1720 -1722 0
1 1635 1640 0
1 -1656 1716 0
1 -1656 1719 0
1 1656 1723 0
1 -1654 -1716 0
1 -1723 1656 0
1 1717 1711 0
1 -1717 -1715 0
1 -1718 1654 0
1 1718 1711 0
1 1718 1715 0
1 1716 1715 0
1 1724 -1723 0
1 1724 -1658 0
1 1724 -1647 0
1 1725 1651 0
1 1725 1578 0
1 1726 -1717 0
1 -1727 1728 0
1 -1727 1729 0
1 -1730 -1731 0
1 -1730 -1669 0
1 1730 1724 0
1 1730 -1732 0
1 1733 1726 0
1 1733 1734 0
1 -1733 -1665 0
1 1728 1735 0
1 -1647 1726 0
1 -1670 1736 0
1 -1670 1658 0
1 -1670 -1737 0
1 -1670 -1665 0
1 1665 1678 0
1 1669 -1733 0
1 1732 1583 0
1 1738 -1727 0
1 -1739 -1740 0
1 1739 1734 0
1 1739 1732 0
1 -1668 -1676 0
1 -1668 1741 0
1 -1741 1668 0
1 -1741 1742 0
1 -1743 1744 0
1 -1745 1746 0
1 1745 -1747 0
1 -1742 1743 0
1 -1742 -1668 0
1 1742 1741 0
1 1664 -1748 0
1 -1746 1749 0
1 1747 1750 0
1 -1747 1741 0
1 -1751 1676 0
1 1751 -1752 0
1 -1751 -1673 0
1 -1684 1676 0
1 1684 1675 0
1 -1683 -1753 0
1 1683 1744 0
1 1683 1754 0
1 -1755 1756 0
1 -1755 -1757 0
1 -1755 -1577 0
1 -1758 1689 0
1 1758 -1684 0
1 -1759 1662 0
1 -1759 -1697 0
1 1757 -1683 0
1 -1744 1683 0
1 -1744 1743 0
1 -1744 1755 0
1 -1744 1757 0
1 1744 -1760 0
1 1686 -1577 0
1 1689 -1761 0
1 -1697 1762 0
1 -1763 1680 0
1 1763 -1758 0
1 1756 1674 0
1 -1756 1689 0
1 1756 -1764 0
1 -1756 1697 0
1 1765 -1766 0
1 -1694 1767 0
1 1694 -1768 0
1 1764 1614 0
1 1768 -1763 0
1 -1768 1764 0
1 -1769 1716 0
1 1770 -1726 0
1 1771 1772 0
1 -1773 -1770 0
1 -1773 1769 0
1 -1737 -1774 0
1 1737 1771 0
1 -1737 -1735 0
1 -1735 -1775 0
1 1735 -1774 0
1 -1776 -1728 0
1 1776 -1773 0
1 1776 -1777 0
1 1776 1778 0
1 -1779 1777 0
1 1779 1775 0
1 1774 1731 0
1 -1774 1719 0
1 -1775 -1780 0
1 1781 -1779 0
1 1731 -1647 0
1 -1734 -1774 0
1 1782 1783 0
1 -1782 1739 0
1 1784 1745 0
1 -1784 1774 0
1 -1785 -1779 0
1 -1778 1786 0
1 -1778 -1787 0
1 1777 -1776 0
1 -1752 1788 0
1 1752 -1785 0
1 -1740 -1746 0
1 -1740 1739 0
1 1750 1789 0
1 1750 -1790 0
1 -1750 1791 0
1 -1788 -1761 0
1 -1788 1740 0
1 -1790 1792 0
1 1790 1761 0
1 -1793 -1750 0
1 1783 -1750 0
1 1783 -1749 0
1 -1748 1788 0
1 1761 1742 0
1 1761 -1744 0
1 -1760 1794 0
1 1760 -1791 0
1 1792 1757 0
1 -1792 1795 0
1 1791 -1796 0
1 -1791 -1792 0
1 -1797 1798 0
1 -1766 -1799 0
1 1766 -1800 0
1 -1766 1791 0
1 1766 -1801 0
1 1802 1803 0
1 1796 -1803 0
1 1796 1802 0
1 1803 -1804 0
1 -1804 -1792 0
1 1804 -1760 0
1 1805 -1778 0
1 -1787 1780 0
1 1787 1778 0
1 1772 1805 0
1 1806 -1807 0
1 -1806 -1808 0
1 1809 -1793 0
1 1809 1810 0
1 -1811 -1812 0
1 -1811 1813 0
1 1814 -1811 0
1 1814 -1787 0
1 1780 1813 0
1 1808 1805 0
1 1808 -1781 0
1 -1798 1812 0
1 1815 1807 0
1 -1816 -1811 0
1 -1817 1777 0
